Route 1: 0 1 95 96 13 75 60 43 29 84 90 0
Route 2: 0 97 34 58 32 17 87 98 24 0
Route 3: 0 66 23 40 35 20 38 49 30 0
Route 4: 0 78 77 7 62 74 85 0
Route 5: 0 88 52 94 69 92 3 15 12 79 0
Route 6: 0 2 91 22 53 51 67 39 68 0
Route 7: 0 28 70 46 41 36 6 26 25 71 9 0
Route 8: 0 44 61 16 14 76 83 37 89 99 54 56 82 0
Route 9: 0 21 64 4 63 86 19 55 18 8 0
Route 10: 0 45 5 33 72 27 59 48 73 100 81 0
Route 11: 0 65 10 11 50 31 80 42 47 57 93 0
